param n := 5;
param T := 3;
param S := 2;

param pi :=  1 0.5   2 0.5 ;

param c :=  1 3   2 2   3 4   4 1   5 3 ;

param B := 4;

param a :=
[1,2,1] 1  [1,3,1] 1  [1,4,1] 0  [1,5,1] 0
[2,3,1] 0  [2,4,1] 1  [2,5,1] 1
[3,4,1] 1  [3,5,1] 0
[4,5,1] 1
[1,2,2] 0  [1,3,2] 1  [1,4,2] 1  [1,5,2] 0
[2,3,2] 1  [2,4,2] 0  [2,5,2] 1
[3,4,2] 0  [3,5,2] 1
[4,5,2] 0 ;